<instance format="XCSP3" type="CSP">
  <variables>
    <array id="x" size="[121]"> 0..10 </array>
  </variables>
  <constraints>
    <group>
      <extension>
        <list> %0 %1 </list>
        <conflicts> (0,0)(1,1)(2,2)(3,3)(4,4)(5,5)(6,6)(7,7)(8,8)(9,9)(10,10) </conflicts>
      </extension>
      <args> x[0] x[104] </args>
      <args> x[0] x[109] </args>
      <args> x[0] x[54] </args>
      <args> x[0] x[59] </args>
      <args> x[0] x[78] </args>
      <args> x[100] x[1] </args>
      <args> x[103] x[10] </args>
      <args> x[10] x[6] </args>
      <args> x[10] x[85] </args>
      <args> x[10] x[91] </args>
      <args> x[100] x[40] </args>
      <args> x[102] x[1] </args>
      <args> x[103] x[85] </args>
      <args> x[103] x[91] </args>
      <args> x[104] x[54] </args>
      <args> x[104] x[99] </args>
      <args> x[105] x[118] </args>
      <args> x[105] x[22] </args>
      <args> x[105] x[31] </args>
      <args> x[105] x[74] </args>
      <args> x[106] x[10] </args>
      <args> x[103] x[106] </args>
      <args> x[106] x[110] </args>
      <args> x[106] x[116] </args>
      <args> x[106] x[6] </args>
      <args> x[107] x[24] </args>
      <args> x[107] x[87] </args>
      <args> x[108] x[38] </args>
      <args> x[108] x[74] </args>
      <args> x[109] x[54] </args>
      <args> x[109] x[99] </args>
      <args> x[11] x[19] </args>
      <args> x[11] x[89] </args>
      <args> x[10] x[110] </args>
      <args> x[103] x[110] </args>
      <args> x[110] x[6] </args>
      <args> x[111] x[29] </args>
      <args> x[111] x[42] </args>
      <args> x[111] x[82] </args>
      <args> x[111] x[93] </args>
      <args> x[111] x[96] </args>
      <args> x[114] x[46] </args>
      <args> x[114] x[47] </args>
      <args> x[114] x[61] </args>
      <args> x[114] x[8] </args>
      <args> x[103] x[116] </args>
      <args> x[116] x[6] </args>
      <args> x[116] x[85] </args>
      <args> x[116] x[91] </args>
      <args> x[119] x[42] </args>
      <args> x[119] x[96] </args>
      <args> x[0] x[12] </args>
      <args> x[12] x[5] </args>
      <args> x[12] x[54] </args>
      <args> x[12] x[59] </args>
      <args> x[12] x[78] </args>
      <args> x[120] x[18] </args>
      <args> x[120] x[66] </args>
      <args> x[120] x[73] </args>
      <args> x[120] x[89] </args>
      <args> x[13] x[25] </args>
      <args> x[13] x[34] </args>
      <args> x[13] x[48] </args>
      <args> x[13] x[51] </args>
      <args> x[14] x[58] </args>
      <args> x[14] x[63] </args>
      <args> x[15] x[47] </args>
      <args> x[15] x[8] </args>
      <args> x[10] x[16] </args>
      <args> x[103] x[16] </args>
      <args> x[116] x[16] </args>
      <args> x[16] x[6] </args>
      <args> x[16] x[85] </args>
      <args> x[17] x[45] </args>
      <args> x[17] x[94] </args>
      <args> x[0] x[2] </args>
      <args> x[104] x[2] </args>
      <args> x[109] x[2] </args>
      <args> x[2] x[59] </args>
      <args> x[101] x[20] </args>
      <args> x[117] x[20] </args>
      <args> x[20] x[21] </args>
      <args> x[20] x[24] </args>
      <args> x[20] x[87] </args>
      <args> x[20] x[95] </args>
      <args> x[118] x[22] </args>
      <args> x[22] x[31] </args>
      <args> x[22] x[38] </args>
      <args> x[21] x[24] </args>
      <args> x[25] x[34] </args>
      <args> x[25] x[4] </args>
      <args> x[25] x[51] </args>
      <args> x[101] x[26] </args>
      <args> x[107] x[26] </args>
      <args> x[21] x[26] </args>
      <args> x[26] x[87] </args>
      <args> x[26] x[95] </args>
      <args> x[27] x[32] </args>
      <args> x[29] x[42] </args>
      <args> x[29] x[49] </args>
      <args> x[29] x[93] </args>
      <args> x[3] x[47] </args>
      <args> x[3] x[62] </args>
      <args> x[3] x[8] </args>
      <args> x[17] x[32] </args>
      <args> x[32] x[94] </args>
      <args> x[15] x[33] </args>
      <args> x[33] x[3] </args>
      <args> x[33] x[47] </args>
      <args> x[33] x[61] </args>
      <args> x[33] x[62] </args>
      <args> x[33] x[67] </args>
      <args> x[33] x[8] </args>
      <args> x[10] x[35] </args>
      <args> x[110] x[35] </args>
      <args> x[116] x[35] </args>
      <args> x[17] x[36] </args>
      <args> x[27] x[36] </args>
      <args> x[32] x[36] </args>
      <args> x[36] x[41] </args>
      <args> x[36] x[86] </args>
      <args> x[36] x[92] </args>
      <args> x[36] x[94] </args>
      <args> x[105] x[37] </args>
      <args> x[108] x[37] </args>
      <args> x[118] x[37] </args>
      <args> x[31] x[37] </args>
      <args> x[37] x[38] </args>
      <args> x[37] x[9] </args>
      <args> x[31] x[38] </args>
      <args> x[4] x[75] </args>
      <args> x[27] x[41] </args>
      <args> x[41] x[94] </args>
      <args> x[42] x[49] </args>
      <args> x[42] x[96] </args>
      <args> x[1] x[43] </args>
      <args> x[100] x[43] </args>
      <args> x[102] x[43] </args>
      <args> x[14] x[43] </args>
      <args> x[43] x[58] </args>
      <args> x[43] x[63] </args>
      <args> x[43] x[64] </args>
      <args> x[46] x[47] </args>
      <args> x[46] x[61] </args>
      <args> x[46] x[8] </args>
      <args> x[25] x[48] </args>
      <args> x[48] x[51] </args>
      <args> x[104] x[5] </args>
      <args> x[2] x[5] </args>
      <args> x[59] x[5] </args>
      <args> x[5] x[78] </args>
      <args> x[50] x[79] </args>
      <args> x[50] x[97] </args>
      <args> x[34] x[51] </args>
      <args> x[4] x[51] </args>
      <args> x[51] x[75] </args>
      <args> x[13] x[52] </args>
      <args> x[48] x[52] </args>
      <args> x[52] x[75] </args>
      <args> x[52] x[90] </args>
      <args> x[39] x[55] </args>
      <args> x[1] x[58] </args>
      <args> x[100] x[58] </args>
      <args> x[102] x[58] </args>
      <args> x[40] x[58] </args>
      <args> x[109] x[59] </args>
      <args> x[59] x[99] </args>
      <args> x[39] x[60] </args>
      <args> x[60] x[65] </args>
      <args> x[60] x[79] </args>
      <args> x[47] x[61] </args>
      <args> x[47] x[62] </args>
      <args> x[1] x[63] </args>
      <args> x[100] x[63] </args>
      <args> x[102] x[63] </args>
      <args> x[40] x[63] </args>
      <args> x[40] x[64] </args>
      <args> x[58] x[64] </args>
      <args> x[64] x[7] </args>
      <args> x[55] x[65] </args>
      <args> x[65] x[79] </args>
      <args> x[18] x[66] </args>
      <args> x[66] x[89] </args>
      <args> x[15] x[67] </args>
      <args> x[67] x[8] </args>
      <args> x[119] x[68] </args>
      <args> x[29] x[68] </args>
      <args> x[42] x[68] </args>
      <args> x[68] x[76] </args>
      <args> x[68] x[82] </args>
      <args> x[68] x[93] </args>
      <args> x[68] x[96] </args>
      <args> x[100] x[7] </args>
      <args> x[40] x[7] </args>
      <args> x[58] x[7] </args>
      <args> x[70] x[98] </args>
      <args> x[17] x[71] </args>
      <args> x[27] x[71] </args>
      <args> x[112] x[73] </args>
      <args> x[18] x[73] </args>
      <args> x[53] x[73] </args>
      <args> x[73] x[89] </args>
      <args> x[118] x[74] </args>
      <args> x[31] x[74] </args>
      <args> x[38] x[74] </args>
      <args> x[111] x[76] </args>
      <args> x[42] x[76] </args>
      <args> x[76] x[93] </args>
      <args> x[76] x[96] </args>
      <args> x[22] x[77] </args>
      <args> x[77] x[9] </args>
      <args> x[109] x[78] </args>
      <args> x[54] x[78] </args>
      <args> x[78] x[99] </args>
      <args> x[39] x[79] </args>
      <args> x[56] x[79] </args>
      <args> x[47] x[8] </args>
      <args> x[61] x[8] </args>
      <args> x[62] x[8] </args>
      <args> x[117] x[80] </args>
      <args> x[20] x[80] </args>
      <args> x[21] x[80] </args>
      <args> x[26] x[80] </args>
      <args> x[65] x[81] </args>
      <args> x[79] x[81] </args>
      <args> x[119] x[82] </args>
      <args> x[112] x[83] </args>
      <args> x[73] x[83] </args>
      <args> x[83] x[89] </args>
      <args> x[39] x[84] </args>
      <args> x[65] x[84] </args>
      <args> x[79] x[84] </args>
      <args> x[32] x[86] </args>
      <args> x[86] x[92] </args>
      <args> x[86] x[94] </args>
      <args> x[101] x[87] </args>
      <args> x[24] x[87] </args>
      <args> x[53] x[89] </args>
      <args> x[118] x[9] </args>
      <args> x[31] x[9] </args>
      <args> x[38] x[9] </args>
      <args> x[74] x[9] </args>
      <args> x[34] x[90] </args>
      <args> x[51] x[90] </args>
      <args> x[75] x[90] </args>
      <args> x[6] x[91] </args>
      <args> x[85] x[91] </args>
      <args> x[93] x[96] </args>
      <args> x[117] x[95] </args>
      <args> x[49] x[96] </args>
      <args> x[39] x[97] </args>
      <args> x[55] x[97] </args>
      <args> x[56] x[97] </args>
      <args> x[65] x[97] </args>
      <args> x[79] x[97] </args>
      <args> x[13] x[98] </args>
      <args> x[4] x[98] </args>
      <args> x[90] x[98] </args>
      <args> x[54] x[99] </args>
    </group>
    <group>
      <extension>
        <list> %0 %1 </list>
        <conflicts> (0,0)(1,1)(2,2)(3,3)(4,4)(5,5)(6,6)(7,7)(8,8)(9,9)(10,10) </conflicts>
      </extension>
      <args> x[0] x[99] </args>
      <args> x[1] x[40] </args>
      <args> x[10] x[116] </args>
      <args> x[101] x[117] </args>
      <args> x[101] x[21] </args>
      <args> x[101] x[24] </args>
      <args> x[100] x[102] </args>
      <args> x[102] x[40] </args>
      <args> x[103] x[6] </args>
      <args> x[104] x[109] </args>
      <args> x[104] x[59] </args>
      <args> x[104] x[78] </args>
      <args> x[105] x[38] </args>
      <args> x[106] x[16] </args>
      <args> x[106] x[35] </args>
      <args> x[106] x[85] </args>
      <args> x[106] x[91] </args>
      <args> x[101] x[107] </args>
      <args> x[107] x[117] </args>
      <args> x[107] x[20] </args>
      <args> x[107] x[21] </args>
      <args> x[107] x[95] </args>
      <args> x[105] x[108] </args>
      <args> x[108] x[118] </args>
      <args> x[108] x[22] </args>
      <args> x[108] x[31] </args>
      <args> x[108] x[9] </args>
      <args> x[112] x[11] </args>
      <args> x[11] x[18] </args>
      <args> x[11] x[53] </args>
      <args> x[11] x[66] </args>
      <args> x[11] x[73] </args>
      <args> x[110] x[116] </args>
      <args> x[110] x[16] </args>
      <args> x[110] x[85] </args>
      <args> x[110] x[91] </args>
      <args> x[111] x[119] </args>
      <args> x[111] x[49] </args>
      <args> x[114] x[15] </args>
      <args> x[114] x[3] </args>
      <args> x[114] x[62] </args>
      <args> x[114] x[67] </args>
      <args> x[118] x[31] </args>
      <args> x[118] x[38] </args>
      <args> x[119] x[49] </args>
      <args> x[119] x[93] </args>
      <args> x[104] x[12] </args>
      <args> x[109] x[12] </args>
      <args> x[12] x[2] </args>
      <args> x[12] x[99] </args>
      <args> x[11] x[120] </args>
      <args> x[112] x[120] </args>
      <args> x[120] x[19] </args>
      <args> x[120] x[53] </args>
      <args> x[13] x[4] </args>
      <args> x[13] x[75] </args>
      <args> x[13] x[90] </args>
      <args> x[14] x[1] </args>
      <args> x[100] x[14] </args>
      <args> x[102] x[14] </args>
      <args> x[14] x[40] </args>
      <args> x[14] x[7] </args>
      <args> x[15] x[46] </args>
      <args> x[15] x[61] </args>
      <args> x[15] x[62] </args>
      <args> x[16] x[91] </args>
      <args> x[112] x[18] </args>
      <args> x[18] x[53] </args>
      <args> x[112] x[19] </args>
      <args> x[18] x[19] </args>
      <args> x[19] x[53] </args>
      <args> x[19] x[89] </args>
      <args> x[2] x[54] </args>
      <args> x[2] x[78] </args>
      <args> x[2] x[99] </args>
      <args> x[117] x[21] </args>
      <args> x[117] x[24] </args>
      <args> x[25] x[75] </args>
      <args> x[25] x[90] </args>
      <args> x[117] x[26] </args>
      <args> x[20] x[26] </args>
      <args> x[24] x[26] </args>
      <args> x[17] x[27] </args>
      <args> x[27] x[45] </args>
      <args> x[27] x[92] </args>
      <args> x[27] x[94] </args>
      <args> x[119] x[29] </args>
      <args> x[29] x[96] </args>
      <args> x[15] x[3] </args>
      <args> x[3] x[46] </args>
      <args> x[3] x[61] </args>
      <args> x[3] x[67] </args>
      <args> x[32] x[45] </args>
      <args> x[32] x[92] </args>
      <args> x[114] x[33] </args>
      <args> x[33] x[46] </args>
      <args> x[34] x[75] </args>
      <args> x[103] x[35] </args>
      <args> x[16] x[35] </args>
      <args> x[35] x[6] </args>
      <args> x[35] x[85] </args>
      <args> x[35] x[91] </args>
      <args> x[36] x[45] </args>
      <args> x[36] x[71] </args>
      <args> x[22] x[37] </args>
      <args> x[37] x[74] </args>
      <args> x[37] x[77] </args>
      <args> x[34] x[4] </args>
      <args> x[17] x[41] </args>
      <args> x[32] x[41] </args>
      <args> x[41] x[45] </args>
      <args> x[41] x[71] </args>
      <args> x[41] x[92] </args>
      <args> x[42] x[93] </args>
      <args> x[40] x[43] </args>
      <args> x[43] x[7] </args>
      <args> x[46] x[62] </args>
      <args> x[34] x[48] </args>
      <args> x[48] x[4] </args>
      <args> x[48] x[75] </args>
      <args> x[48] x[90] </args>
      <args> x[0] x[5] </args>
      <args> x[109] x[5] </args>
      <args> x[54] x[5] </args>
      <args> x[5] x[99] </args>
      <args> x[39] x[50] </args>
      <args> x[50] x[55] </args>
      <args> x[50] x[56] </args>
      <args> x[50] x[65] </args>
      <args> x[50] x[81] </args>
      <args> x[50] x[84] </args>
      <args> x[25] x[52] </args>
      <args> x[34] x[52] </args>
      <args> x[4] x[52] </args>
      <args> x[51] x[52] </args>
      <args> x[112] x[53] </args>
      <args> x[55] x[56] </args>
      <args> x[39] x[56] </args>
      <args> x[58] x[63] </args>
      <args> x[54] x[59] </args>
      <args> x[50] x[60] </args>
      <args> x[55] x[60] </args>
      <args> x[56] x[60] </args>
      <args> x[60] x[81] </args>
      <args> x[60] x[84] </args>
      <args> x[60] x[97] </args>
      <args> x[61] x[62] </args>
      <args> x[1] x[64] </args>
      <args> x[100] x[64] </args>
      <args> x[102] x[64] </args>
      <args> x[14] x[64] </args>
      <args> x[63] x[64] </args>
      <args> x[39] x[65] </args>
      <args> x[56] x[65] </args>
      <args> x[112] x[66] </args>
      <args> x[19] x[66] </args>
      <args> x[53] x[66] </args>
      <args> x[66] x[73] </args>
      <args> x[46] x[67] </args>
      <args> x[47] x[67] </args>
      <args> x[61] x[67] </args>
      <args> x[62] x[67] </args>
      <args> x[111] x[68] </args>
      <args> x[49] x[68] </args>
      <args> x[1] x[7] </args>
      <args> x[102] x[7] </args>
      <args> x[63] x[7] </args>
      <args> x[13] x[70] </args>
      <args> x[25] x[70] </args>
      <args> x[34] x[70] </args>
      <args> x[4] x[70] </args>
      <args> x[48] x[70] </args>
      <args> x[51] x[70] </args>
      <args> x[52] x[70] </args>
      <args> x[70] x[75] </args>
      <args> x[70] x[90] </args>
      <args> x[32] x[71] </args>
      <args> x[45] x[71] </args>
      <args> x[71] x[92] </args>
      <args> x[71] x[94] </args>
      <args> x[19] x[73] </args>
      <args> x[22] x[74] </args>
      <args> x[119] x[76] </args>
      <args> x[29] x[76] </args>
      <args> x[49] x[76] </args>
      <args> x[76] x[82] </args>
      <args> x[105] x[77] </args>
      <args> x[108] x[77] </args>
      <args> x[118] x[77] </args>
      <args> x[31] x[77] </args>
      <args> x[38] x[77] </args>
      <args> x[74] x[77] </args>
      <args> x[59] x[78] </args>
      <args> x[55] x[79] </args>
      <args> x[101] x[80] </args>
      <args> x[107] x[80] </args>
      <args> x[24] x[80] </args>
      <args> x[80] x[87] </args>
      <args> x[80] x[95] </args>
      <args> x[39] x[81] </args>
      <args> x[55] x[81] </args>
      <args> x[56] x[81] </args>
      <args> x[81] x[97] </args>
      <args> x[29] x[82] </args>
      <args> x[42] x[82] </args>
      <args> x[49] x[82] </args>
      <args> x[82] x[93] </args>
      <args> x[82] x[96] </args>
      <args> x[11] x[83] </args>
      <args> x[120] x[83] </args>
      <args> x[18] x[83] </args>
      <args> x[19] x[83] </args>
      <args> x[53] x[83] </args>
      <args> x[66] x[83] </args>
      <args> x[55] x[84] </args>
      <args> x[56] x[84] </args>
      <args> x[81] x[84] </args>
      <args> x[84] x[97] </args>
      <args> x[6] x[85] </args>
      <args> x[17] x[86] </args>
      <args> x[27] x[86] </args>
      <args> x[41] x[86] </args>
      <args> x[45] x[86] </args>
      <args> x[71] x[86] </args>
      <args> x[117] x[87] </args>
      <args> x[21] x[87] </args>
      <args> x[87] x[95] </args>
      <args> x[112] x[89] </args>
      <args> x[18] x[89] </args>
      <args> x[105] x[9] </args>
      <args> x[22] x[9] </args>
      <args> x[4] x[90] </args>
      <args> x[17] x[92] </args>
      <args> x[45] x[92] </args>
      <args> x[92] x[94] </args>
      <args> x[49] x[93] </args>
      <args> x[45] x[94] </args>
      <args> x[101] x[95] </args>
      <args> x[21] x[95] </args>
      <args> x[24] x[95] </args>
      <args> x[25] x[98] </args>
      <args> x[34] x[98] </args>
      <args> x[48] x[98] </args>
      <args> x[51] x[98] </args>
      <args> x[52] x[98] </args>
      <args> x[75] x[98] </args>
    </group>
    <group>
      <extension>
        <list> %0 %1 </list>
        <conflicts> (0,0)(1,0)(0,1)(1,1)(2,2)(3,3)(4,4)(5,5)(6,6)(7,7)(8,8)(9,9)(10,10) </conflicts>
      </extension>
      <args> x[10] x[113] </args>
      <args> x[103] x[113] </args>
      <args> x[106] x[113] </args>
      <args> x[110] x[113] </args>
      <args> x[113] x[116] </args>
      <args> x[113] x[16] </args>
      <args> x[113] x[35] </args>
      <args> x[113] x[6] </args>
      <args> x[113] x[85] </args>
      <args> x[113] x[91] </args>
      <args> x[105] x[115] </args>
      <args> x[108] x[115] </args>
      <args> x[115] x[118] </args>
      <args> x[115] x[22] </args>
      <args> x[115] x[31] </args>
      <args> x[115] x[37] </args>
      <args> x[115] x[38] </args>
      <args> x[115] x[74] </args>
      <args> x[115] x[77] </args>
      <args> x[115] x[9] </args>
      <args> x[0] x[23] </args>
      <args> x[104] x[23] </args>
      <args> x[109] x[23] </args>
      <args> x[12] x[23] </args>
      <args> x[23] x[2] </args>
      <args> x[23] x[5] </args>
      <args> x[23] x[54] </args>
      <args> x[23] x[59] </args>
      <args> x[23] x[78] </args>
      <args> x[23] x[99] </args>
      <args> x[101] x[28] </args>
      <args> x[107] x[28] </args>
      <args> x[117] x[28] </args>
      <args> x[20] x[28] </args>
      <args> x[21] x[28] </args>
      <args> x[24] x[28] </args>
      <args> x[26] x[28] </args>
      <args> x[28] x[80] </args>
      <args> x[28] x[87] </args>
      <args> x[28] x[95] </args>
      <args> x[111] x[30] </args>
      <args> x[119] x[30] </args>
      <args> x[29] x[30] </args>
      <args> x[30] x[42] </args>
      <args> x[30] x[49] </args>
      <args> x[30] x[68] </args>
      <args> x[30] x[76] </args>
      <args> x[30] x[82] </args>
      <args> x[30] x[93] </args>
      <args> x[30] x[96] </args>
      <args> x[39] x[44] </args>
      <args> x[44] x[50] </args>
      <args> x[44] x[55] </args>
      <args> x[44] x[56] </args>
      <args> x[44] x[60] </args>
      <args> x[44] x[65] </args>
      <args> x[44] x[79] </args>
      <args> x[44] x[81] </args>
      <args> x[44] x[84] </args>
      <args> x[44] x[97] </args>
      <args> x[11] x[57] </args>
      <args> x[112] x[57] </args>
      <args> x[120] x[57] </args>
      <args> x[18] x[57] </args>
      <args> x[19] x[57] </args>
      <args> x[53] x[57] </args>
      <args> x[57] x[66] </args>
      <args> x[57] x[73] </args>
      <args> x[57] x[83] </args>
      <args> x[57] x[89] </args>
      <args> x[1] x[69] </args>
      <args> x[100] x[69] </args>
      <args> x[102] x[69] </args>
      <args> x[14] x[69] </args>
      <args> x[40] x[69] </args>
      <args> x[43] x[69] </args>
      <args> x[58] x[69] </args>
      <args> x[63] x[69] </args>
      <args> x[64] x[69] </args>
      <args> x[69] x[7] </args>
      <args> x[114] x[72] </args>
      <args> x[15] x[72] </args>
      <args> x[3] x[72] </args>
      <args> x[33] x[72] </args>
      <args> x[46] x[72] </args>
      <args> x[47] x[72] </args>
      <args> x[61] x[72] </args>
      <args> x[62] x[72] </args>
      <args> x[67] x[72] </args>
      <args> x[72] x[8] </args>
      <args> x[17] x[88] </args>
      <args> x[27] x[88] </args>
      <args> x[32] x[88] </args>
      <args> x[36] x[88] </args>
      <args> x[41] x[88] </args>
      <args> x[45] x[88] </args>
      <args> x[71] x[88] </args>
      <args> x[86] x[88] </args>
      <args> x[88] x[92] </args>
      <args> x[88] x[94] </args>
    </group>
    <group>
      <extension>
        <list> %0 %1 </list>
        <supports> (0,0)(1,1)(2,2)(3,3)(4,4)(5,5)(6,6)(7,7)(8,8)(9,9)(10,10) </supports>
      </extension>
      <args> x[115] x[13] </args>
      <args> x[25] x[30] </args>
      <args> x[34] x[57] </args>
      <args> x[28] x[4] </args>
      <args> x[48] x[72] </args>
      <args> x[113] x[51] </args>
      <args> x[52] x[69] </args>
      <args> x[44] x[70] </args>
      <args> x[88] x[90] </args>
      <args> x[23] x[98] </args>
    </group>
  </constraints>
</instance>
